min: c;

c = 4.17276903832922 * u3_t10_h0 + 3.74343360179095 * u3_t10_h1 + 3.32999958554622 * u3_t4_h2 + 3.32999958554622 * u3_t10_h2 + 3.71142020069224 * u3_t4_h3 + 3.71142020069224 * u3_t10_h3 + 3.47528183267688 * u3_t4_h4 + 3.47528183267688 * u3_t10_h4 + 4.01906645984025 * u3_t4_h5 + 4.01906645984025 * u3_t10_h5 + 3.55980450490039 * u3_t4_h6 + 3.55980450490039 * u3_t10_h6 + 4.09373673120588 * u3_t4_h7 + 4.09373673120588 * u3_t9_h7 + 4.09373673120588 * u3_t10_h7 + 5.03435758113366 * u3_t4_h8 + 5.03435758113366 * u3_t9_h8 + 4.73035042531013 * u3_t4_h9 + 4.73035042531013 * u3_t9_h9 + 5.28887877683838 * u3_t4_h10 + 5.28887877683838 * u3_t6_h10 + 5.28887877683838 * u3_t9_h10 + 3.64113784881666 * u3_t3_h11 + 3.64113784881666 * u3_t4_h11 + 3.64113784881666 * u3_t6_h11 + 3.64113784881666 * u3_t9_h11 + 6.61934911228908 * u3_t3_h12 + 6.61934911228908 * u3_t4_h12 + 6.61934911228908 * u3_t6_h12 + 6.61934911228908 * u3_t9_h12 + 4.43821084519347 * u3_t3_h13 + 4.43821084519347 * u3_t4_h13 + 4.43821084519347 * u3_t5_h13 + 4.43821084519347 * u3_t6_h13 + 4.43821084519347 * u3_t9_h13 + 5.5502152988653 * u3_t3_h14 + 5.5502152988653 * u3_t4_h14 + 5.5502152988653 * u3_t5_h14 + 5.5502152988653 * u3_t6_h14 + 5.5502152988653 * u3_t9_h14 + 6.01603364717817 * u3_t2_h15 + 6.01603364717817 * u3_t3_h15 + 6.01603364717817 * u3_t4_h15 + 6.01603364717817 * u3_t5_h15 + 6.01603364717817 * u3_t6_h15 + 6.01603364717817 * u3_t9_h15 + 6.25721219912356 * u3_t2_h16 + 6.25721219912356 * u3_t4_h16 + 6.25721219912356 * u3_t5_h16 + 6.25721219912356 * u3_t6_h16 + 6.25721219912356 * u3_t9_h16 + 6.71996505501533 * u3_t2_h17 + 6.71996505501533 * u3_t4_h17 + 6.71996505501533 * u3_t6_h17 + 6.71996505501533 * u3_t9_h17 + 6.5354712182655 * u3_t2_h18 + 6.5354712182655 * u3_t6_h18 + 6.5354712182655 * u3_t9_h18 + 6.07735787951009 * u3_t2_h19 + 6.07735787951009 * u3_t9_h19 + 5.52958183224246 * u3_t1_h20 + 5.52958183224246 * u3_t2_h20 + 5.52958183224246 * u3_t8_h20 + 5.52958183224246 * u3_t9_h20 + 5.01883471106026 * u3_t1_h21 + 5.01883471106026 * u3_t2_h21 + 5.01883471106026 * u3_t7_h21 + 5.01883471106026 * u3_t8_h21 + 5.01883471106026 * u3_t9_h21 + 5.88225009243283 * u3_t1_h22 + 5.88225009243283 * u3_t7_h22 + 5.88225009243283 * u3_t8_h22 + 4.99615666492031 * u3_t1_h23 + 4.99615666492031 * u3_t7_h23 + 4.99615666492031 * u3_t8_h23;
0 <= u3_t1_h20 <= 1;
0 <= u3_t1_h21 <= 1;
0 <= u3_t1_h22 <= 1;
0 <= u3_t1_h23 <= 1;
u3_t1_h20 + u3_t1_h21 + u3_t1_h22 + u3_t1_h23 = 2;
0 <= u3_t2_h15 <= 1;
0 <= u3_t2_h16 <= 1;
0 <= u3_t2_h17 <= 1;
0 <= u3_t2_h18 <= 1;
0 <= u3_t2_h19 <= 1;
0 <= u3_t2_h20 <= 1;
0 <= u3_t2_h21 <= 1;
u3_t2_h15 + u3_t2_h16 + u3_t2_h17 + u3_t2_h18 + u3_t2_h19 + u3_t2_h20 + u3_t2_h21 = 3;
0 <= u3_t3_h11 <= 1;
0 <= u3_t3_h12 <= 1;
0 <= u3_t3_h13 <= 1;
0 <= u3_t3_h14 <= 1;
0 <= u3_t3_h15 <= 1;
u3_t3_h11 + u3_t3_h12 + u3_t3_h13 + u3_t3_h14 + u3_t3_h15 = 2;
0 <= u3_t4_h2 <= 1;
0 <= u3_t4_h3 <= 1;
0 <= u3_t4_h4 <= 1;
0 <= u3_t4_h5 <= 1;
0 <= u3_t4_h6 <= 1;
0 <= u3_t4_h7 <= 1;
0 <= u3_t4_h8 <= 1;
0 <= u3_t4_h9 <= 1;
0 <= u3_t4_h10 <= 1;
0 <= u3_t4_h11 <= 1;
0 <= u3_t4_h12 <= 1;
0 <= u3_t4_h13 <= 1;
0 <= u3_t4_h14 <= 1;
0 <= u3_t4_h15 <= 1;
0 <= u3_t4_h16 <= 1;
0 <= u3_t4_h17 <= 1;
u3_t4_h2 + u3_t4_h3 + u3_t4_h4 + u3_t4_h5 + u3_t4_h6 + u3_t4_h7 + u3_t4_h8 + u3_t4_h9 + u3_t4_h10 + u3_t4_h11 + u3_t4_h12 + u3_t4_h13 + u3_t4_h14 + u3_t4_h15 + u3_t4_h16 + u3_t4_h17 = 3;
0 <= u3_t5_h13 <= 1;
0 <= u3_t5_h14 <= 1;
0 <= u3_t5_h15 <= 1;
0 <= u3_t5_h16 <= 1;
u3_t5_h13 + u3_t5_h14 + u3_t5_h15 + u3_t5_h16 = 2;
0 <= u3_t6_h10 <= 1;
0 <= u3_t6_h11 <= 1;
0 <= u3_t6_h12 <= 1;
0 <= u3_t6_h13 <= 1;
0 <= u3_t6_h14 <= 1;
0 <= u3_t6_h15 <= 1;
0 <= u3_t6_h16 <= 1;
0 <= u3_t6_h17 <= 1;
0 <= u3_t6_h18 <= 1;
u3_t6_h10 + u3_t6_h11 + u3_t6_h12 + u3_t6_h13 + u3_t6_h14 + u3_t6_h15 + u3_t6_h16 + u3_t6_h17 + u3_t6_h18 = 2;
0 <= u3_t7_h21 <= 1;
0 <= u3_t7_h22 <= 1;
0 <= u3_t7_h23 <= 1;
u3_t7_h21 + u3_t7_h22 + u3_t7_h23 = 2;
0 <= u3_t8_h20 <= 1;
0 <= u3_t8_h21 <= 1;
0 <= u3_t8_h22 <= 1;
0 <= u3_t8_h23 <= 1;
u3_t8_h20 + u3_t8_h21 + u3_t8_h22 + u3_t8_h23 = 1;
0 <= u3_t9_h7 <= 1;
0 <= u3_t9_h8 <= 1;
0 <= u3_t9_h9 <= 1;
0 <= u3_t9_h10 <= 1;
0 <= u3_t9_h11 <= 1;
0 <= u3_t9_h12 <= 1;
0 <= u3_t9_h13 <= 1;
0 <= u3_t9_h14 <= 1;
0 <= u3_t9_h15 <= 1;
0 <= u3_t9_h16 <= 1;
0 <= u3_t9_h17 <= 1;
0 <= u3_t9_h18 <= 1;
0 <= u3_t9_h19 <= 1;
0 <= u3_t9_h20 <= 1;
0 <= u3_t9_h21 <= 1;
u3_t9_h7 + u3_t9_h8 + u3_t9_h9 + u3_t9_h10 + u3_t9_h11 + u3_t9_h12 + u3_t9_h13 + u3_t9_h14 + u3_t9_h15 + u3_t9_h16 + u3_t9_h17 + u3_t9_h18 + u3_t9_h19 + u3_t9_h20 + u3_t9_h21 = 2;
0 <= u3_t10_h0 <= 1;
0 <= u3_t10_h1 <= 1;
0 <= u3_t10_h2 <= 1;
0 <= u3_t10_h3 <= 1;
0 <= u3_t10_h4 <= 1;
0 <= u3_t10_h5 <= 1;
0 <= u3_t10_h6 <= 1;
0 <= u3_t10_h7 <= 1;
u3_t10_h0 + u3_t10_h1 + u3_t10_h2 + u3_t10_h3 + u3_t10_h4 + u3_t10_h5 + u3_t10_h6 + u3_t10_h7 = 3;
